100
32
13
10
5
22
12
28
1
17
12
6
10
28
19
1
16
5
8
8
2
2
1
12
20
9
1
2
2
1
1
9
16
17
3
2
1
1
17
5
6
1
1
2
3
1
3
5
4
1
2
1
18
4
19
1
2
1
7
3
3
1
1
1
3
2
1
19
2
20
3
18
1
9
1
1
5
1
1
21
1
2
7
1
3
6
4
1
2
21
3
3
2
2
5
1
17
1
1
2
2
2